PROBLEM NAME: eil51_n16
KNAPSACK DATA TYPE: uncorrelated, similar weights
DIMENSION: 16
NUMBER OF ITEMS: 15
CAPACITY OF KNAPSACK: 136431
MIN SPEED: 0.1
MAX SPEED: 1
RENTING RATIO: 1.43
EDGE_WEIGHT_TYPE: CEIL_2D
NODE_COORD_SECTION	(INDEX, X, Y):
1	49	49
2	20	26
3	31	32
4	5	25
5	8	52
6	30	48
7	58	48
8	37	69
9	38	46
10	46	10
11	10	17
12	21	10
13	32	39
14	25	55
15	56	37
16	30	40
ITEMS SECTION	(INDEX, PROFIT, WEIGHT, ASSIGNED NODE NUMBER):
1	955	100045	8
2	901	100058	14
3	845	100014	5
4	795	100036	6
5	738	100006	9
6	485	100093	16
7	421	100091	13
8	326	100005	3
9	322	100048	2
10	252	100021	4
11	248	100015	11
12	122	100066	12
13	94	100097	10
14	43	100056	15
15	9	100090	7
